p tw 192 47041 2 
1 97 
1 100 
1 102 
1 104 
1 106 
1 108 
1 110 
1 112 
1 114 
1 116 
1 118 
1 120 
1 122 
1 124 
1 126 
1 128 
1 130 
1 132 
1 134 
1 136 
1 138 
1 140 
1 142 
1 144 
1 146 
1 148 
1 150 
1 152 
1 154 
1 156 
1 158 
1 160 
1 162 
1 164 
1 166 
1 168 
1 170 
1 172 
1 174 
1 176 
1 178 
1 180 
1 182 
1 184 
1 186 
1 188 
1 190 
1 192 
2 98 
2 99 
2 101 
2 103 
2 105 
2 107 
2 109 
2 111 
2 113 
2 115 
2 117 
2 119 
2 121 
2 123 
2 125 
2 127 
2 129 
2 131 
2 133 
2 135 
2 137 
2 139 
2 141 
2 143 
2 145 
2 147 
2 149 
2 151 
2 153 
2 155 
2 157 
2 159 
2 161 
2 163 
2 165 
2 167 
2 169 
2 171 
2 173 
2 175 
2 177 
2 179 
2 181 
2 183 
2 185 
2 187 
2 189 
2 191 
3 4 
3 97 
3 99 
3 102 
3 104 
3 106 
3 108 
3 109 
3 112 
3 114 
3 116 
3 118 
3 119 
3 121 
3 124 
3 125 
3 128 
3 129 
3 132 
3 134 
3 136 
3 137 
3 139 
3 142 
3 143 
3 145 
3 148 
3 150 
3 151 
3 154 
3 156 
3 157 
3 159 
3 161 
3 164 
3 165 
3 168 
3 169 
3 172 
3 174 
3 175 
3 177 
3 179 
3 181 
3 184 
3 185 
3 187 
3 189 
3 191 
4 98 
4 100 
4 101 
4 103 
4 105 
4 107 
4 110 
4 111 
4 113 
4 115 
4 117 
4 120 
4 122 
4 123 
4 126 
4 127 
4 130 
4 131 
4 133 
4 135 
4 138 
4 140 
4 141 
4 144 
4 146 
4 147 
4 149 
4 152 
4 153 
4 155 
4 158 
4 160 
4 162 
4 163 
4 166 
4 167 
4 170 
4 171 
4 173 
4 176 
4 178 
4 180 
4 182 
4 183 
4 186 
4 188 
4 190 
4 192 
5 6 
5 97 
5 99 
5 101 
5 104 
5 106 
5 108 
5 110 
5 111 
5 114 
5 116 
5 118 
5 120 
5 121 
5 123 
5 126 
5 127 
5 130 
5 131 
5 134 
5 136 
5 138 
5 139 
5 141 
5 144 
5 145 
5 147 
5 150 
5 152 
5 153 
5 156 
5 158 
5 159 
5 161 
5 163 
5 166 
5 167 
5 170 
5 171 
5 174 
5 176 
5 177 
5 179 
5 181 
5 183 
5 186 
5 187 
5 189 
5 191 
6 98 
6 100 
6 102 
6 103 
6 105 
6 107 
6 109 
6 112 
6 113 
6 115 
6 117 
6 119 
6 122 
6 124 
6 125 
6 128 
6 129 
6 132 
6 133 
6 135 
6 137 
6 140 
6 142 
6 143 
6 146 
6 148 
6 149 
6 151 
6 154 
6 155 
6 157 
6 160 
6 162 
6 164 
6 165 
6 168 
6 169 
6 172 
6 173 
6 175 
6 178 
6 180 
6 182 
6 184 
6 185 
6 188 
6 190 
6 192 
7 8 
7 97 
7 99 
7 101 
7 103 
7 106 
7 108 
7 110 
7 112 
7 113 
7 116 
7 118 
7 120 
7 122 
7 123 
7 125 
7 128 
7 129 
7 132 
7 133 
7 136 
7 138 
7 140 
7 141 
7 143 
7 146 
7 147 
7 149 
7 152 
7 154 
7 155 
7 158 
7 160 
7 161 
7 163 
7 165 
7 168 
7 169 
7 172 
7 173 
7 176 
7 178 
7 179 
7 181 
7 183 
7 185 
7 188 
7 189 
7 191 
8 98 
8 100 
8 102 
8 104 
8 105 
8 107 
8 109 
8 111 
8 114 
8 115 
8 117 
8 119 
8 121 
8 124 
8 126 
8 127 
8 130 
8 131 
8 134 
8 135 
8 137 
8 139 
8 142 
8 144 
8 145 
8 148 
8 150 
8 151 
8 153 
8 156 
8 157 
8 159 
8 162 
8 164 
8 166 
8 167 
8 170 
8 171 
8 174 
8 175 
8 177 
8 180 
8 182 
8 184 
8 186 
8 187 
8 190 
8 192 
9 10 
9 97 
9 99 
9 101 
9 103 
9 105 
9 108 
9 110 
9 112 
9 114 
9 115 
9 118 
9 120 
9 122 
9 124 
9 125 
9 127 
9 130 
9 131 
9 134 
9 135 
9 138 
9 140 
9 142 
9 143 
9 145 
9 148 
9 149 
9 151 
9 154 
9 156 
9 157 
9 160 
9 162 
9 163 
9 165 
9 167 
9 170 
9 171 
9 174 
9 175 
9 178 
9 180 
9 181 
9 183 
9 185 
9 187 
9 190 
9 191 
10 98 
10 100 
10 102 
10 104 
10 106 
10 107 
10 109 
10 111 
10 113 
10 116 
10 117 
10 119 
10 121 
10 123 
10 126 
10 128 
10 129 
10 132 
10 133 
10 136 
10 137 
10 139 
10 141 
10 144 
10 146 
10 147 
10 150 
10 152 
10 153 
10 155 
10 158 
10 159 
10 161 
10 164 
10 166 
10 168 
10 169 
10 172 
10 173 
10 176 
10 177 
10 179 
10 182 
10 184 
10 186 
10 188 
10 189 
10 192 
11 12 
11 97 
11 99 
11 101 
11 103 
11 105 
11 107 
11 110 
11 112 
11 114 
11 116 
11 117 
11 120 
11 122 
11 124 
11 126 
11 127 
11 129 
11 132 
11 133 
11 136 
11 137 
11 140 
11 142 
11 144 
11 145 
11 147 
11 150 
11 151 
11 153 
11 156 
11 158 
11 159 
11 162 
11 164 
11 165 
11 167 
11 169 
11 172 
11 173 
11 176 
11 177 
11 180 
11 182 
11 183 
11 185 
11 187 
11 189 
11 192 
12 98 
12 100 
12 102 
12 104 
12 106 
12 108 
12 109 
12 111 
12 113 
12 115 
12 118 
12 119 
12 121 
12 123 
12 125 
12 128 
12 130 
12 131 
12 134 
12 135 
12 138 
12 139 
12 141 
12 143 
12 146 
12 148 
12 149 
12 152 
12 154 
12 155 
12 157 
12 160 
12 161 
12 163 
12 166 
12 168 
12 170 
12 171 
12 174 
12 175 
12 178 
12 179 
12 181 
12 184 
12 186 
12 188 
12 190 
12 191 
13 14 
13 97 
13 100 
13 101 
13 103 
13 105 
13 107 
13 109 
13 112 
13 114 
13 116 
13 118 
13 119 
13 122 
13 124 
13 126 
13 128 
13 129 
13 131 
13 134 
13 135 
13 138 
13 139 
13 142 
13 144 
13 146 
13 147 
13 149 
13 152 
13 153 
13 155 
13 158 
13 160 
13 161 
13 164 
13 166 
13 167 
13 169 
13 171 
13 174 
13 175 
13 178 
13 179 
13 182 
13 184 
13 185 
13 187 
13 189 
13 191 
14 98 
14 99 
14 102 
14 104 
14 106 
14 108 
14 110 
14 111 
14 113 
14 115 
14 117 
14 120 
14 121 
14 123 
14 125 
14 127 
14 130 
14 132 
14 133 
14 136 
14 137 
14 140 
14 141 
14 143 
14 145 
14 148 
14 150 
14 151 
14 154 
14 156 
14 157 
14 159 
14 162 
14 163 
14 165 
14 168 
14 170 
14 172 
14 173 
14 176 
14 177 
14 180 
14 181 
14 183 
14 186 
14 188 
14 190 
14 192 
15 16 
15 97 
15 99 
15 102 
15 103 
15 105 
15 107 
15 109 
15 111 
15 114 
15 116 
15 118 
15 120 
15 121 
15 124 
15 126 
15 128 
15 130 
15 131 
15 133 
15 136 
15 137 
15 140 
15 141 
15 144 
15 146 
15 148 
15 149 
15 151 
15 154 
15 155 
15 157 
15 160 
15 162 
15 163 
15 166 
15 168 
15 169 
15 171 
15 173 
15 176 
15 177 
15 180 
15 181 
15 184 
15 186 
15 187 
15 189 
15 191 
16 98 
16 100 
16 101 
16 104 
16 106 
16 108 
16 110 
16 112 
16 113 
16 115 
16 117 
16 119 
16 122 
16 123 
16 125 
16 127 
16 129 
16 132 
16 134 
16 135 
16 138 
16 139 
16 142 
16 143 
16 145 
16 147 
16 150 
16 152 
16 153 
16 156 
16 158 
16 159 
16 161 
16 164 
16 165 
16 167 
16 170 
16 172 
16 174 
16 175 
16 178 
16 179 
16 182 
16 183 
16 185 
16 188 
16 190 
16 192 
17 18 
17 97 
17 99 
17 101 
17 104 
17 105 
17 107 
17 109 
17 111 
17 113 
17 116 
17 118 
17 120 
17 122 
17 123 
17 126 
17 128 
17 130 
17 132 
17 133 
17 135 
17 138 
17 139 
17 142 
17 143 
17 146 
17 148 
17 150 
17 151 
17 153 
17 156 
17 157 
17 159 
17 162 
17 164 
17 165 
17 168 
17 170 
17 171 
17 173 
17 175 
17 178 
17 179 
17 182 
17 183 
17 186 
17 188 
17 189 
17 191 
18 98 
18 100 
18 102 
18 103 
18 106 
18 108 
18 110 
18 112 
18 114 
18 115 
18 117 
18 119 
18 121 
18 124 
18 125 
18 127 
18 129 
18 131 
18 134 
18 136 
18 137 
18 140 
18 141 
18 144 
18 145 
18 147 
18 149 
18 152 
18 154 
18 155 
18 158 
18 160 
18 161 
18 163 
18 166 
18 167 
18 169 
18 172 
18 174 
18 176 
18 177 
18 180 
18 181 
18 184 
18 185 
18 187 
18 190 
18 192 
19 20 
19 97 
19 99 
19 101 
19 103 
19 106 
19 107 
19 109 
19 111 
19 113 
19 115 
19 118 
19 120 
19 122 
19 124 
19 125 
19 128 
19 130 
19 132 
19 134 
19 135 
19 137 
19 140 
19 141 
19 144 
19 145 
19 148 
19 150 
19 152 
19 153 
19 155 
19 158 
19 159 
19 161 
19 164 
19 166 
19 167 
19 170 
19 172 
19 173 
19 175 
19 177 
19 180 
19 181 
19 184 
19 185 
19 188 
19 190 
19 191 
20 98 
20 100 
20 102 
20 104 
20 105 
20 108 
20 110 
20 112 
20 114 
20 116 
20 117 
20 119 
20 121 
20 123 
20 126 
20 127 
20 129 
20 131 
20 133 
20 136 
20 138 
20 139 
20 142 
20 143 
20 146 
20 147 
20 149 
20 151 
20 154 
20 156 
20 157 
20 160 
20 162 
20 163 
20 165 
20 168 
20 169 
20 171 
20 174 
20 176 
20 178 
20 179 
20 182 
20 183 
20 186 
20 187 
20 189 
20 192 
21 22 
21 97 
21 99 
21 101 
21 103 
21 105 
21 108 
21 109 
21 111 
21 113 
21 115 
21 117 
21 120 
21 122 
21 124 
21 126 
21 127 
21 130 
21 132 
21 134 
21 136 
21 137 
21 139 
21 142 
21 143 
21 146 
21 147 
21 150 
21 152 
21 154 
21 155 
21 157 
21 160 
21 161 
21 163 
21 166 
21 168 
21 169 
21 172 
21 174 
21 175 
21 177 
21 179 
21 182 
21 183 
21 186 
21 187 
21 190 
21 192 
22 98 
22 100 
22 102 
22 104 
22 106 
22 107 
22 110 
22 112 
22 114 
22 116 
22 118 
22 119 
22 121 
22 123 
22 125 
22 128 
22 129 
22 131 
22 133 
22 135 
22 138 
22 140 
22 141 
22 144 
22 145 
22 148 
22 149 
22 151 
22 153 
22 156 
22 158 
22 159 
22 162 
22 164 
22 165 
22 167 
22 170 
22 171 
22 173 
22 176 
22 178 
22 180 
22 181 
22 184 
22 185 
22 188 
22 189 
22 191 
23 24 
23 97 
23 100 
23 101 
23 103 
23 105 
23 107 
23 110 
23 111 
23 113 
23 115 
23 117 
23 119 
23 122 
23 124 
23 126 
23 128 
23 129 
23 132 
23 134 
23 136 
23 138 
23 139 
23 141 
23 144 
23 145 
23 148 
23 149 
23 152 
23 154 
23 156 
23 157 
23 159 
23 162 
23 163 
23 165 
23 168 
23 170 
23 171 
23 174 
23 176 
23 177 
23 179 
23 181 
23 184 
23 185 
23 188 
23 189 
23 192 
24 98 
24 99 
24 102 
24 104 
24 106 
24 108 
24 109 
24 112 
24 114 
24 116 
24 118 
24 120 
24 121 
24 123 
24 125 
24 127 
24 130 
24 131 
24 133 
24 135 
24 137 
24 140 
24 142 
24 143 
24 146 
24 147 
24 150 
24 151 
24 153 
24 155 
24 158 
24 160 
24 161 
24 164 
24 166 
24 167 
24 169 
24 172 
24 173 
24 175 
24 178 
24 180 
24 182 
24 183 
24 186 
24 187 
24 190 
24 191 
25 26 
25 97 
25 100 
25 102 
25 103 
25 105 
25 107 
25 109 
25 112 
25 113 
25 115 
25 117 
25 119 
25 121 
25 124 
25 126 
25 128 
25 130 
25 131 
25 134 
25 136 
25 138 
25 140 
25 141 
25 143 
25 146 
25 147 
25 150 
25 151 
25 154 
25 156 
25 158 
25 159 
25 161 
25 164 
25 165 
25 167 
25 170 
25 172 
25 173 
25 176 
25 178 
25 179 
25 181 
25 183 
25 186 
25 187 
25 190 
25 191 
26 98 
26 99 
26 101 
26 104 
26 106 
26 108 
26 110 
26 111 
26 114 
26 116 
26 118 
26 120 
26 122 
26 123 
26 125 
26 127 
26 129 
26 132 
26 133 
26 135 
26 137 
26 139 
26 142 
26 144 
26 145 
26 148 
26 149 
26 152 
26 153 
26 155 
26 157 
26 160 
26 162 
26 163 
26 166 
26 168 
26 169 
26 171 
26 174 
26 175 
26 177 
26 180 
26 182 
26 184 
26 185 
26 188 
26 189 
26 192 
27 28 
27 97 
27 99 
27 102 
27 104 
27 105 
27 107 
27 109 
27 111 
27 114 
27 115 
27 117 
27 119 
27 121 
27 123 
27 126 
27 128 
27 130 
27 132 
27 133 
27 136 
27 138 
27 140 
27 142 
27 143 
27 145 
27 148 
27 149 
27 152 
27 153 
27 156 
27 158 
27 160 
27 161 
27 163 
27 166 
27 167 
27 169 
27 172 
27 174 
27 175 
27 178 
27 180 
27 181 
27 183 
27 185 
27 188 
27 189 
27 192 
28 98 
28 100 
28 101 
28 103 
28 106 
28 108 
28 110 
28 112 
28 113 
28 116 
28 118 
28 120 
28 122 
28 124 
28 125 
28 127 
28 129 
28 131 
28 134 
28 135 
28 137 
28 139 
28 141 
28 144 
28 146 
28 147 
28 150 
28 151 
28 154 
28 155 
28 157 
28 159 
28 162 
28 164 
28 165 
28 168 
28 170 
28 171 
28 173 
28 176 
28 177 
28 179 
28 182 
28 184 
28 186 
28 187 
28 190 
28 191 
29 30 
29 97 
29 100 
29 101 
29 104 
29 106 
29 107 
29 109 
29 111 
29 113 
29 116 
29 117 
29 119 
29 121 
29 123 
29 125 
29 128 
29 130 
29 132 
29 134 
29 135 
29 138 
29 140 
29 142 
29 144 
29 145 
29 147 
29 150 
29 151 
29 154 
29 155 
29 158 
29 160 
29 162 
29 163 
29 165 
29 168 
29 169 
29 171 
29 174 
29 176 
29 177 
29 180 
29 182 
29 183 
29 185 
29 187 
29 190 
29 191 
30 98 
30 99 
30 102 
30 103 
30 105 
30 108 
30 110 
30 112 
30 114 
30 115 
30 118 
30 120 
30 122 
30 124 
30 126 
30 127 
30 129 
30 131 
30 133 
30 136 
30 137 
30 139 
30 141 
30 143 
30 146 
30 148 
30 149 
30 152 
30 153 
30 156 
30 157 
30 159 
30 161 
30 164 
30 166 
30 167 
30 170 
30 172 
30 173 
30 175 
30 178 
30 179 
30 181 
30 184 
30 186 
30 188 
30 189 
30 192 
31 32 
31 97 
31 99 
31 102 
31 103 
31 106 
31 108 
31 109 
31 111 
31 113 
31 115 
31 118 
31 119 
31 121 
31 123 
31 125 
31 127 
31 130 
31 132 
31 134 
31 136 
31 137 
31 140 
31 142 
31 144 
31 146 
31 147 
31 149 
31 152 
31 153 
31 156 
31 157 
31 160 
31 162 
31 164 
31 165 
31 167 
31 170 
31 171 
31 173 
31 176 
31 178 
31 179 
31 182 
31 184 
31 185 
31 187 
31 189 
31 192 
32 98 
32 100 
32 101 
32 104 
32 105 
32 107 
32 110 
32 112 
32 114 
32 116 
32 117 
32 120 
32 122 
32 124 
32 126 
32 128 
32 129 
32 131 
32 133 
32 135 
32 138 
32 139 
32 141 
32 143 
32 145 
32 148 
32 150 
32 151 
32 154 
32 155 
32 158 
32 159 
32 161 
32 163 
32 166 
32 168 
32 169 
32 172 
32 174 
32 175 
32 177 
32 180 
32 181 
32 183 
32 186 
32 188 
32 190 
32 191 
33 34 
33 97 
33 100 
33 101 
33 104 
33 105 
33 108 
33 110 
33 111 
33 113 
33 115 
33 117 
33 120 
33 121 
33 123 
33 125 
33 127 
33 129 
33 132 
33 134 
33 136 
33 138 
33 139 
33 142 
33 144 
33 146 
33 148 
33 149 
33 151 
33 154 
33 155 
33 158 
33 159 
33 162 
33 164 
33 166 
33 167 
33 169 
33 172 
33 173 
33 175 
33 178 
33 180 
33 181 
33 184 
33 186 
33 187 
33 189 
33 191 
34 98 
34 99 
34 102 
34 103 
34 106 
34 107 
34 109 
34 112 
34 114 
34 116 
34 118 
34 119 
34 122 
34 124 
34 126 
34 128 
34 130 
34 131 
34 133 
34 135 
34 137 
34 140 
34 141 
34 143 
34 145 
34 147 
34 150 
34 152 
34 153 
34 156 
34 157 
34 160 
34 161 
34 163 
34 165 
34 168 
34 170 
34 171 
34 174 
34 176 
34 177 
34 179 
34 182 
34 183 
34 185 
34 188 
34 190 
34 192 
35 36 
35 97 
35 99 
35 102 
35 103 
35 106 
35 107 
35 110 
35 112 
35 113 
35 115 
35 117 
35 119 
35 122 
35 123 
35 125 
35 127 
35 129 
35 131 
35 134 
35 136 
35 138 
35 140 
35 141 
35 144 
35 146 
35 148 
35 150 
35 151 
35 153 
35 156 
35 157 
35 160 
35 161 
35 164 
35 166 
35 168 
35 169 
35 171 
35 174 
35 175 
35 177 
35 180 
35 182 
35 183 
35 186 
35 188 
35 189 
35 191 
36 98 
36 100 
36 101 
36 104 
36 105 
36 108 
36 109 
36 111 
36 114 
36 116 
36 118 
36 120 
36 121 
36 124 
36 126 
36 128 
36 130 
36 132 
36 133 
36 135 
36 137 
36 139 
36 142 
36 143 
36 145 
36 147 
36 149 
36 152 
36 154 
36 155 
36 158 
36 159 
36 162 
36 163 
36 165 
36 167 
36 170 
36 172 
36 173 
36 176 
36 178 
36 179 
36 181 
36 184 
36 185 
36 187 
36 190 
36 192 
37 38 
37 97 
37 99 
37 101 
37 104 
37 105 
37 108 
37 109 
37 112 
37 114 
37 115 
37 117 
37 119 
37 121 
37 124 
37 125 
37 127 
37 129 
37 131 
37 133 
37 136 
37 138 
37 140 
37 142 
37 143 
37 146 
37 148 
37 150 
37 152 
37 153 
37 155 
37 158 
37 159 
37 162 
37 163 
37 166 
37 168 
37 170 
37 171 
37 173 
37 176 
37 177 
37 179 
37 182 
37 184 
37 185 
37 188 
37 190 
37 191 
38 98 
38 100 
38 102 
38 103 
38 106 
38 107 
38 110 
38 111 
38 113 
38 116 
38 118 
38 120 
38 122 
38 123 
38 126 
38 128 
38 130 
38 132 
38 134 
38 135 
38 137 
38 139 
38 141 
38 144 
38 145 
38 147 
38 149 
38 151 
38 154 
38 156 
38 157 
38 160 
38 161 
38 164 
38 165 
38 167 
38 169 
38 172 
38 174 
38 175 
38 178 
38 180 
38 181 
38 183 
38 186 
38 187 
38 189 
38 192 
39 40 
39 97 
39 99 
39 101 
39 103 
39 106 
39 107 
39 110 
39 111 
39 114 
39 116 
39 117 
39 119 
39 121 
39 123 
39 126 
39 127 
39 129 
39 131 
39 133 
39 135 
39 138 
39 140 
39 142 
39 144 
39 145 
39 148 
39 150 
39 152 
39 154 
39 155 
39 157 
39 160 
39 161 
39 164 
39 165 
39 168 
39 170 
39 172 
39 173 
39 175 
39 178 
39 179 
39 181 
39 184 
39 186 
39 187 
39 190 
39 192 
40 98 
40 100 
40 102 
40 104 
40 105 
40 108 
40 109 
40 112 
40 113 
40 115 
40 118 
40 120 
40 122 
40 124 
40 125 
40 128 
40 130 
40 132 
40 134 
40 136 
40 137 
40 139 
40 141 
40 143 
40 146 
40 147 
40 149 
40 151 
40 153 
40 156 
40 158 
40 159 
40 162 
40 163 
40 166 
40 167 
40 169 
40 171 
40 174 
40 176 
40 177 
40 180 
40 182 
40 183 
40 185 
40 188 
40 189 
40 191 
41 42 
41 97 
41 100 
41 101 
41 103 
41 105 
41 108 
41 109 
41 112 
41 113 
41 116 
41 118 
41 119 
41 121 
41 123 
41 125 
41 128 
41 129 
41 131 
41 133 
41 135 
41 137 
41 140 
41 142 
41 144 
41 146 
41 147 
41 150 
41 152 
41 154 
41 156 
41 157 
41 159 
41 162 
41 163 
41 166 
41 167 
41 170 
41 172 
41 174 
41 175 
41 177 
41 180 
41 181 
41 183 
41 186 
41 188 
41 189 
41 192 
42 98 
42 99 
42 102 
42 104 
42 106 
42 107 
42 110 
42 111 
42 114 
42 115 
42 117 
42 120 
42 122 
42 124 
42 126 
42 127 
42 130 
42 132 
42 134 
42 136 
42 138 
42 139 
42 141 
42 143 
42 145 
42 148 
42 149 
42 151 
42 153 
42 155 
42 158 
42 160 
42 161 
42 164 
42 165 
42 168 
42 169 
42 171 
42 173 
42 176 
42 178 
42 179 
42 182 
42 184 
42 185 
42 187 
42 190 
42 191 
43 44 
43 97 
43 100 
43 102 
43 103 
43 105 
43 107 
43 110 
43 111 
43 114 
43 115 
43 118 
43 120 
43 121 
43 123 
43 125 
43 127 
43 130 
43 131 
43 133 
43 135 
43 137 
43 139 
43 142 
43 144 
43 146 
43 148 
43 149 
43 152 
43 154 
43 156 
43 158 
43 159 
43 161 
43 164 
43 165 
43 168 
43 169 
43 172 
43 174 
43 176 
43 177 
43 179 
43 182 
43 183 
43 185 
43 188 
43 190 
43 191 
44 98 
44 99 
44 101 
44 104 
44 106 
44 108 
44 109 
44 112 
44 113 
44 116 
44 117 
44 119 
44 122 
44 124 
44 126 
44 128 
44 129 
44 132 
44 134 
44 136 
44 138 
44 140 
44 141 
44 143 
44 145 
44 147 
44 150 
44 151 
44 153 
44 155 
44 157 
44 160 
44 162 
44 163 
44 166 
44 167 
44 170 
44 171 
44 173 
44 175 
44 178 
44 180 
44 181 
44 184 
44 186 
44 187 
44 189 
44 192 
45 46 
45 97 
45 99 
45 102 
45 104 
45 105 
45 107 
45 109 
45 112 
45 113 
45 116 
45 117 
45 120 
45 122 
45 123 
45 125 
45 127 
45 129 
45 132 
45 133 
45 135 
45 137 
45 139 
45 141 
45 144 
45 146 
45 148 
45 150 
45 151 
45 154 
45 156 
45 158 
45 160 
45 161 
45 163 
45 166 
45 167 
45 170 
45 171 
45 174 
45 176 
45 178 
45 179 
45 181 
45 184 
45 185 
45 187 
45 190 
45 192 
46 98 
46 100 
46 101 
46 103 
46 106 
46 108 
46 110 
46 111 
46 114 
46 115 
46 118 
46 119 
46 121 
46 124 
46 126 
46 128 
46 130 
46 131 
46 134 
46 136 
46 138 
46 140 
46 142 
46 143 
46 145 
46 147 
46 149 
46 152 
46 153 
46 155 
46 157 
46 159 
46 162 
46 164 
46 165 
46 168 
46 169 
46 172 
46 173 
46 175 
46 177 
46 180 
46 182 
46 183 
46 186 
46 188 
46 189 
46 191 
47 48 
47 97 
47 100 
47 101 
47 104 
47 106 
47 107 
47 109 
47 111 
47 114 
47 115 
47 118 
47 119 
47 122 
47 124 
47 125 
47 127 
47 129 
47 131 
47 134 
47 135 
47 137 
47 139 
47 141 
47 143 
47 146 
47 148 
47 150 
47 152 
47 153 
47 156 
47 158 
47 160 
47 162 
47 163 
47 165 
47 168 
47 169 
47 172 
47 173 
47 176 
47 178 
47 180 
47 181 
47 183 
47 186 
47 187 
47 189 
47 192 
48 98 
48 99 
48 102 
48 103 
48 105 
48 108 
48 110 
48 112 
48 113 
48 116 
48 117 
48 120 
48 121 
48 123 
48 126 
48 128 
48 130 
48 132 
48 133 
48 136 
48 138 
48 140 
48 142 
48 144 
48 145 
48 147 
48 149 
48 151 
48 154 
48 155 
48 157 
48 159 
48 161 
48 164 
48 166 
48 167 
48 170 
48 171 
48 174 
48 175 
48 177 
48 179 
48 182 
48 184 
48 185 
48 188 
48 190 
48 191 
49 50 
49 97 
49 100 
49 102 
49 103 
49 106 
49 108 
49 109 
49 111 
49 113 
49 116 
49 117 
49 120 
49 121 
49 124 
49 126 
49 127 
49 129 
49 131 
49 133 
49 136 
49 137 
49 139 
49 141 
49 143 
49 145 
49 148 
49 150 
49 152 
49 154 
49 155 
49 158 
49 160 
49 162 
49 164 
49 165 
49 167 
49 170 
49 171 
49 174 
49 175 
49 178 
49 180 
49 182 
49 183 
49 185 
49 188 
49 189 
49 191 
50 98 
50 99 
50 101 
50 104 
50 105 
50 107 
50 110 
50 112 
50 114 
50 115 
50 118 
50 119 
50 122 
50 123 
50 125 
50 128 
50 130 
50 132 
50 134 
50 135 
50 138 
50 140 
50 142 
50 144 
50 146 
50 147 
50 149 
50 151 
50 153 
50 156 
50 157 
50 159 
50 161 
50 163 
50 166 
50 168 
50 169 
50 172 
50 173 
50 176 
50 177 
50 179 
50 181 
50 184 
50 186 
50 187 
50 190 
50 192 
51 52 
51 97 
51 99 
51 102 
51 104 
51 105 
51 108 
51 110 
51 111 
51 113 
51 115 
51 118 
51 119 
51 122 
51 123 
51 126 
51 128 
51 129 
51 131 
51 133 
51 135 
51 138 
51 139 
51 141 
51 143 
51 145 
51 147 
51 150 
51 152 
51 154 
51 156 
51 157 
51 160 
51 162 
51 164 
51 166 
51 167 
51 169 
51 172 
51 173 
51 176 
51 177 
51 180 
51 182 
51 184 
51 185 
51 187 
51 190 
51 191 
52 98 
52 100 
52 101 
52 103 
52 106 
52 107 
52 109 
52 112 
52 114 
52 116 
52 117 
52 120 
52 121 
52 124 
52 125 
52 127 
52 130 
52 132 
52 134 
52 136 
52 137 
52 140 
52 142 
52 144 
52 146 
52 148 
52 149 
52 151 
52 153 
52 155 
52 158 
52 159 
52 161 
52 163 
52 165 
52 168 
52 170 
52 171 
52 174 
52 175 
52 178 
52 179 
52 181 
52 183 
52 186 
52 188 
52 189 
52 192 
53 54 
53 97 
53 99 
53 101 
53 104 
53 106 
53 107 
53 110 
53 112 
53 113 
53 115 
53 117 
53 120 
53 121 
53 124 
53 125 
53 128 
53 130 
53 131 
53 133 
53 135 
53 137 
53 140 
53 141 
53 143 
53 145 
53 147 
53 149 
53 152 
53 154 
53 156 
53 158 
53 159 
53 162 
53 164 
53 166 
53 168 
53 169 
53 171 
53 174 
53 175 
53 178 
53 179 
53 182 
53 184 
53 186 
53 187 
53 189 
53 192 
54 98 
54 100 
54 102 
54 103 
54 105 
54 108 
54 109 
54 111 
54 114 
54 116 
54 118 
54 119 
54 122 
54 123 
54 126 
54 127 
54 129 
54 132 
54 134 
54 136 
54 138 
54 139 
54 142 
54 144 
54 146 
54 148 
54 150 
54 151 
54 153 
54 155 
54 157 
54 160 
54 161 
54 163 
54 165 
54 167 
54 170 
54 172 
54 173 
54 176 
54 177 
54 180 
54 181 
54 183 
54 185 
54 188 
54 190 
54 191 
55 56 
55 97 
55 100 
55 101 
55 103 
55 106 
55 108 
55 109 
55 112 
55 114 
55 115 
55 117 
55 119 
55 122 
55 123 
55 126 
55 127 
55 130 
55 132 
55 133 
55 135 
55 137 
55 139 
55 142 
55 143 
55 145 
55 147 
55 149 
55 151 
55 154 
55 156 
55 158 
55 160 
55 161 
55 164 
55 166 
55 168 
55 170 
55 171 
55 173 
55 176 
55 177 
55 180 
55 181 
55 184 
55 186 
55 188 
55 189 
55 191 
56 98 
56 99 
56 102 
56 104 
56 105 
56 107 
56 110 
56 111 
56 113 
56 116 
56 118 
56 120 
56 121 
56 124 
56 125 
56 128 
56 129 
56 131 
56 134 
56 136 
56 138 
56 140 
56 141 
56 144 
56 146 
56 148 
56 150 
56 152 
56 153 
56 155 
56 157 
56 159 
56 162 
56 163 
56 165 
56 167 
56 169 
56 172 
56 174 
56 175 
56 178 
56 179 
56 182 
56 183 
56 185 
56 187 
56 190 
56 192 
57 58 
57 97 
57 99 
57 102 
57 103 
57 105 
57 108 
57 110 
57 111 
57 114 
57 116 
57 117 
57 119 
57 121 
57 124 
57 125 
57 128 
57 129 
57 132 
57 134 
57 135 
57 137 
57 139 
57 141 
57 144 
57 145 
57 147 
57 149 
57 151 
57 153 
57 156 
57 158 
57 160 
57 162 
57 163 
57 166 
57 168 
57 170 
57 172 
57 173 
57 175 
57 178 
57 179 
57 182 
57 183 
57 186 
57 188 
57 190 
57 191 
58 98 
58 100 
58 101 
58 104 
58 106 
58 107 
58 109 
58 112 
58 113 
58 115 
58 118 
58 120 
58 122 
58 123 
58 126 
58 127 
58 130 
58 131 
58 133 
58 136 
58 138 
58 140 
58 142 
58 143 
58 146 
58 148 
58 150 
58 152 
58 154 
58 155 
58 157 
58 159 
58 161 
58 164 
58 165 
58 167 
58 169 
58 171 
58 174 
58 176 
58 177 
58 180 
58 181 
58 184 
58 185 
58 187 
58 189 
58 192 
59 60 
59 97 
59 99 
59 101 
59 104 
59 105 
59 107 
59 110 
59 112 
59 113 
59 116 
59 118 
59 119 
59 121 
59 123 
59 126 
59 127 
59 130 
59 131 
59 134 
59 136 
59 137 
59 139 
59 141 
59 143 
59 146 
59 147 
59 149 
59 151 
59 153 
59 155 
59 158 
59 160 
59 162 
59 164 
59 165 
59 168 
59 170 
59 172 
59 174 
59 175 
59 177 
59 180 
59 181 
59 184 
59 185 
59 188 
59 190 
59 192 
60 98 
60 100 
60 102 
60 103 
60 106 
60 108 
60 109 
60 111 
60 114 
60 115 
60 117 
60 120 
60 122 
60 124 
60 125 
60 128 
60 129 
60 132 
60 133 
60 135 
60 138 
60 140 
60 142 
60 144 
60 145 
60 148 
60 150 
60 152 
60 154 
60 156 
60 157 
60 159 
60 161 
60 163 
60 166 
60 167 
60 169 
60 171 
60 173 
60 176 
60 178 
60 179 
60 182 
60 183 
60 186 
60 187 
60 189 
60 191 
61 62 
61 97 
61 100 
61 101 
61 103 
61 106 
61 107 
61 109 
61 112 
61 114 
61 115 
61 118 
61 120 
61 121 
61 123 
61 125 
61 128 
61 129 
61 132 
61 133 
61 136 
61 138 
61 139 
61 141 
61 143 
61 145 
61 148 
61 149 
61 151 
61 153 
61 155 
61 157 
61 160 
61 162 
61 164 
61 166 
61 167 
61 170 
61 172 
61 174 
61 176 
61 177 
61 179 
61 182 
61 183 
61 186 
61 187 
61 190 
61 192 
62 98 
62 99 
62 102 
62 104 
62 105 
62 108 
62 110 
62 111 
62 113 
62 116 
62 117 
62 119 
62 122 
62 124 
62 126 
62 127 
62 130 
62 131 
62 134 
62 135 
62 137 
62 140 
62 142 
62 144 
62 146 
62 147 
62 150 
62 152 
62 154 
62 156 
62 158 
62 159 
62 161 
62 163 
62 165 
62 168 
62 169 
62 171 
62 173 
62 175 
62 178 
62 180 
62 181 
62 184 
62 185 
62 188 
62 189 
62 191 
63 64 
63 97 
63 100 
63 102 
63 103 
63 105 
63 108 
63 109 
63 111 
63 114 
63 116 
63 117 
63 120 
63 122 
63 123 
63 125 
63 127 
63 130 
63 131 
63 134 
63 135 
63 138 
63 140 
63 141 
63 143 
63 145 
63 147 
63 150 
63 151 
63 153 
63 155 
63 157 
63 159 
63 162 
63 164 
63 166 
63 168 
63 169 
63 172 
63 174 
63 176 
63 178 
63 179 
63 181 
63 184 
63 185 
63 188 
63 189 
63 192 
64 98 
64 99 
64 101 
64 104 
64 106 
64 107 
64 110 
64 112 
64 113 
64 115 
64 118 
64 119 
64 121 
64 124 
64 126 
64 128 
64 129 
64 132 
64 133 
64 136 
64 137 
64 139 
64 142 
64 144 
64 146 
64 148 
64 149 
64 152 
64 154 
64 156 
64 158 
64 160 
64 161 
64 163 
64 165 
64 167 
64 170 
64 171 
64 173 
64 175 
64 177 
64 180 
64 182 
64 183 
64 186 
64 187 
64 190 
64 191 
65 66 
65 97 
65 100 
65 102 
65 104 
65 105 
65 107 
65 110 
65 111 
65 113 
65 116 
65 118 
65 119 
65 122 
65 124 
65 125 
65 127 
65 129 
65 132 
65 133 
65 136 
65 137 
65 140 
65 142 
65 143 
65 145 
65 147 
65 149 
65 152 
65 153 
65 155 
65 157 
65 159 
65 161 
65 164 
65 166 
65 168 
65 170 
65 171 
65 174 
65 176 
65 178 
65 180 
65 181 
65 183 
65 186 
65 187 
65 190 
65 191 
66 98 
66 99 
66 101 
66 103 
66 106 
66 108 
66 109 
66 112 
66 114 
66 115 
66 117 
66 120 
66 121 
66 123 
66 126 
66 128 
66 130 
66 131 
66 134 
66 135 
66 138 
66 139 
66 141 
66 144 
66 146 
66 148 
66 150 
66 151 
66 154 
66 156 
66 158 
66 160 
66 162 
66 163 
66 165 
66 167 
66 169 
66 172 
66 173 
66 175 
66 177 
66 179 
66 182 
66 184 
66 185 
66 188 
66 189 
66 192 
67 68 
67 97 
67 99 
67 102 
67 104 
67 106 
67 107 
67 109 
67 112 
67 113 
67 115 
67 118 
67 120 
67 121 
67 124 
67 126 
67 127 
67 129 
67 131 
67 134 
67 135 
67 138 
67 139 
67 142 
67 144 
67 145 
67 147 
67 149 
67 151 
67 154 
67 155 
67 157 
67 159 
67 161 
67 163 
67 166 
67 168 
67 170 
67 172 
67 173 
67 176 
67 178 
67 180 
67 182 
67 183 
67 185 
67 188 
67 189 
67 192 
68 98 
68 100 
68 101 
68 103 
68 105 
68 108 
68 110 
68 111 
68 114 
68 116 
68 117 
68 119 
68 122 
68 123 
68 125 
68 128 
68 130 
68 132 
68 133 
68 136 
68 137 
68 140 
68 141 
68 143 
68 146 
68 148 
68 150 
68 152 
68 153 
68 156 
68 158 
68 160 
68 162 
68 164 
68 165 
68 167 
68 169 
68 171 
68 174 
68 175 
68 177 
68 179 
68 181 
68 184 
68 186 
68 187 
68 190 
68 191 
69 70 
69 97 
69 100 
69 101 
69 104 
69 106 
69 108 
69 109 
69 111 
69 114 
69 115 
69 117 
69 120 
69 122 
69 123 
69 126 
69 128 
69 129 
69 131 
69 133 
69 136 
69 137 
69 140 
69 141 
69 144 
69 146 
69 147 
69 149 
69 151 
69 153 
69 156 
69 157 
69 159 
69 161 
69 163 
69 165 
69 168 
69 170 
69 172 
69 174 
69 175 
69 178 
69 180 
69 182 
69 184 
69 185 
69 187 
69 190 
69 191 
70 98 
70 99 
70 102 
70 103 
70 105 
70 107 
70 110 
70 112 
70 113 
70 116 
70 118 
70 119 
70 121 
70 124 
70 125 
70 127 
70 130 
70 132 
70 134 
70 135 
70 138 
70 139 
70 142 
70 143 
70 145 
70 148 
70 150 
70 152 
70 154 
70 155 
70 158 
70 160 
70 162 
70 164 
70 166 
70 167 
70 169 
70 171 
70 173 
70 176 
70 177 
70 179 
70 181 
70 183 
70 186 
70 188 
70 189 
70 192 
71 72 
71 97 
71 99 
71 102 
71 103 
71 106 
71 108 
71 110 
71 111 
71 113 
71 116 
71 117 
71 119 
71 122 
71 124 
71 125 
71 128 
71 130 
71 131 
71 133 
71 135 
71 138 
71 139 
71 142 
71 143 
71 146 
71 148 
71 149 
71 151 
71 153 
71 155 
71 158 
71 159 
71 161 
71 163 
71 165 
71 167 
71 170 
71 172 
71 174 
71 176 
71 177 
71 180 
71 182 
71 184 
71 186 
71 187 
71 189 
71 192 
72 98 
72 100 
72 101 
72 104 
72 105 
72 107 
72 109 
72 112 
72 114 
72 115 
72 118 
72 120 
72 121 
72 123 
72 126 
72 127 
72 129 
72 132 
72 134 
72 136 
72 137 
72 140 
72 141 
72 144 
72 145 
72 147 
72 150 
72 152 
72 154 
72 156 
72 157 
72 160 
72 162 
72 164 
72 166 
72 168 
72 169 
72 171 
72 173 
72 175 
72 178 
72 179 
72 181 
72 183 
72 185 
72 188 
72 190 
72 191 
73 74 
73 97 
73 100 
73 101 
73 104 
73 105 
73 108 
73 110 
73 112 
73 113 
73 115 
73 118 
73 119 
73 121 
73 124 
73 126 
73 127 
73 130 
73 132 
73 133 
73 135 
73 137 
73 140 
73 141 
73 144 
73 145 
73 148 
73 150 
73 151 
73 153 
73 155 
73 157 
73 160 
73 161 
73 163 
73 165 
73 167 
73 169 
73 172 
73 174 
73 176 
73 178 
73 179 
73 182 
73 184 
73 186 
73 188 
73 189 
73 191 
74 98 
74 99 
74 102 
74 103 
74 106 
74 107 
74 109 
74 111 
74 114 
74 116 
74 117 
74 120 
74 122 
74 123 
74 125 
74 128 
74 129 
74 131 
74 134 
74 136 
74 138 
74 139 
74 142 
74 143 
74 146 
74 147 
74 149 
74 152 
74 154 
74 156 
74 158 
74 159 
74 162 
74 164 
74 166 
74 168 
74 170 
74 171 
74 173 
74 175 
74 177 
74 180 
74 181 
74 183 
74 185 
74 187 
74 190 
74 192 
75 76 
75 97 
75 99 
75 102 
75 103 
75 106 
75 107 
75 110 
75 112 
75 114 
75 115 
75 117 
75 120 
75 121 
75 123 
75 126 
75 128 
75 129 
75 132 
75 134 
75 135 
75 137 
75 139 
75 142 
75 143 
75 146 
75 147 
75 150 
75 152 
75 153 
75 155 
75 157 
75 159 
75 162 
75 163 
75 165 
75 167 
75 169 
75 171 
75 174 
75 176 
75 178 
75 180 
75 181 
75 184 
75 186 
75 188 
75 190 
75 191 
76 98 
76 100 
76 101 
76 104 
76 105 
76 108 
76 109 
76 111 
76 113 
76 116 
76 118 
76 119 
76 122 
76 124 
76 125 
76 127 
76 130 
76 131 
76 133 
76 136 
76 138 
76 140 
76 141 
76 144 
76 145 
76 148 
76 149 
76 151 
76 154 
76 156 
76 158 
76 160 
76 161 
76 164 
76 166 
76 168 
76 170 
76 172 
76 173 
76 175 
76 177 
76 179 
76 182 
76 183 
76 185 
76 187 
76 189 
76 192 
77 78 
77 97 
77 99 
77 101 
77 104 
77 105 
77 108 
77 109 
77 112 
77 114 
77 116 
77 117 
77 119 
77 122 
77 123 
77 125 
77 128 
77 130 
77 131 
77 134 
77 136 
77 137 
77 139 
77 141 
77 144 
77 145 
77 148 
77 149 
77 152 
77 154 
77 155 
77 157 
77 159 
77 161 
77 164 
77 165 
77 167 
77 169 
77 171 
77 173 
77 176 
77 178 
77 180 
77 182 
77 183 
77 186 
77 188 
77 190 
77 192 
78 98 
78 100 
78 102 
78 103 
78 106 
78 107 
78 110 
78 111 
78 113 
78 115 
78 118 
78 120 
78 121 
78 124 
78 126 
78 127 
78 129 
78 132 
78 133 
78 135 
78 138 
78 140 
78 142 
78 143 
78 146 
78 147 
78 150 
78 151 
78 153 
78 156 
78 158 
78 160 
78 162 
78 163 
78 166 
78 168 
78 170 
78 172 
78 174 
78 175 
78 177 
78 179 
78 181 
78 184 
78 185 
78 187 
78 189 
78 191 
79 80 
79 97 
79 100 
79 101 
79 103 
79 106 
79 107 
79 110 
79 111 
79 114 
79 116 
79 118 
79 119 
79 121 
79 124 
79 125 
79 127 
79 130 
79 132 
79 133 
79 136 
79 138 
79 139 
79 141 
79 143 
79 146 
79 147 
79 150 
79 151 
79 154 
79 156 
79 157 
79 159 
79 161 
79 163 
79 166 
79 167 
79 169 
79 171 
79 173 
79 175 
79 178 
79 180 
79 182 
79 184 
79 185 
79 188 
79 190 
79 192 
80 98 
80 99 
80 102 
80 104 
80 105 
80 108 
80 109 
80 112 
80 113 
80 115 
80 117 
80 120 
80 122 
80 123 
80 126 
80 128 
80 129 
80 131 
80 134 
80 135 
80 137 
80 140 
80 142 
80 144 
80 145 
80 148 
80 149 
80 152 
80 153 
80 155 
80 158 
80 160 
80 162 
80 164 
80 165 
80 168 
80 170 
80 172 
80 174 
80 176 
80 177 
80 179 
80 181 
80 183 
80 186 
80 187 
80 189 
80 191 
81 82 
81 97 
81 100 
81 102 
81 103 
81 105 
81 108 
81 109 
81 112 
81 113 
81 116 
81 118 
81 120 
81 121 
81 123 
81 126 
81 127 
81 129 
81 132 
81 134 
81 135 
81 138 
81 140 
81 141 
81 143 
81 145 
81 148 
81 149 
81 152 
81 153 
81 156 
81 158 
81 159 
81 161 
81 163 
81 165 
81 168 
81 169 
81 171 
81 173 
81 175 
81 177 
81 180 
81 182 
81 184 
81 186 
81 187 
81 190 
81 192 
82 98 
82 99 
82 101 
82 104 
82 106 
82 107 
82 110 
82 111 
82 114 
82 115 
82 117 
82 119 
82 122 
82 124 
82 125 
82 128 
82 130 
82 131 
82 133 
82 136 
82 137 
82 139 
82 142 
82 144 
82 146 
82 147 
82 150 
82 151 
82 154 
82 155 
82 157 
82 160 
82 162 
82 164 
82 166 
82 167 
82 170 
82 172 
82 174 
82 176 
82 178 
82 179 
82 181 
82 183 
82 185 
82 188 
82 189 
82 191 
83 84 
83 97 
83 100 
83 102 
83 104 
83 105 
83 107 
83 110 
83 111 
83 114 
83 115 
83 118 
83 120 
83 122 
83 123 
83 125 
83 128 
83 129 
83 131 
83 134 
83 136 
83 137 
83 140 
83 142 
83 143 
83 145 
83 147 
83 150 
83 151 
83 154 
83 155 
83 158 
83 160 
83 161 
83 163 
83 165 
83 167 
83 170 
83 171 
83 173 
83 175 
83 177 
83 179 
83 182 
83 184 
83 186 
83 188 
83 189 
83 192 
84 98 
84 99 
84 101 
84 103 
84 106 
84 108 
84 109 
84 112 
84 113 
84 116 
84 117 
84 119 
84 121 
84 124 
84 126 
84 127 
84 130 
84 132 
84 133 
84 135 
84 138 
84 139 
84 141 
84 144 
84 146 
84 148 
84 149 
84 152 
84 153 
84 156 
84 157 
84 159 
84 162 
84 164 
84 166 
84 168 
84 169 
84 172 
84 174 
84 176 
84 178 
84 180 
84 181 
84 183 
84 185 
84 187 
84 190 
84 191 
85 86 
85 97 
85 100 
85 102 
85 104 
85 106 
85 107 
85 109 
85 112 
85 113 
85 116 
85 117 
85 120 
85 122 
85 124 
85 125 
85 127 
85 130 
85 131 
85 133 
85 136 
85 138 
85 139 
85 142 
85 144 
85 145 
85 147 
85 149 
85 152 
85 153 
85 156 
85 157 
85 160 
85 162 
85 163 
85 165 
85 167 
85 169 
85 172 
85 173 
85 175 
85 177 
85 179 
85 181 
85 184 
85 186 
85 188 
85 190 
85 191 
86 98 
86 99 
86 101 
86 103 
86 105 
86 108 
86 110 
86 111 
86 114 
86 115 
86 118 
86 119 
86 121 
86 123 
86 126 
86 128 
86 129 
86 132 
86 134 
86 135 
86 137 
86 140 
86 141 
86 143 
86 146 
86 148 
86 150 
86 151 
86 154 
86 155 
86 158 
86 159 
86 161 
86 164 
86 166 
86 168 
86 170 
86 171 
86 174 
86 176 
86 178 
86 180 
86 182 
86 183 
86 185 
86 187 
86 189 
86 192 
87 88 
87 97 
87 99 
87 102 
87 104 
87 106 
87 108 
87 109 
87 111 
87 114 
87 115 
87 118 
87 119 
87 122 
87 124 
87 126 
87 127 
87 129 
87 132 
87 133 
87 135 
87 138 
87 140 
87 141 
87 144 
87 146 
87 147 
87 149 
87 151 
87 154 
87 155 
87 158 
87 159 
87 162 
87 164 
87 165 
87 167 
87 169 
87 171 
87 174 
87 175 
87 177 
87 179 
87 181 
87 183 
87 186 
87 188 
87 190 
87 192 
88 98 
88 100 
88 101 
88 103 
88 105 
88 107 
88 110 
88 112 
88 113 
88 116 
88 117 
88 120 
88 121 
88 123 
88 125 
88 128 
88 130 
88 131 
88 134 
88 136 
88 137 
88 139 
88 142 
88 143 
88 145 
88 148 
88 150 
88 152 
88 153 
88 156 
88 157 
88 160 
88 161 
88 163 
88 166 
88 168 
88 170 
88 172 
88 173 
88 176 
88 178 
88 180 
88 182 
88 184 
88 185 
88 187 
88 189 
88 191 
89 90 
89 97 
89 100 
89 101 
89 104 
89 106 
89 108 
89 110 
89 111 
89 113 
89 116 
89 117 
89 120 
89 121 
89 124 
89 126 
89 128 
89 129 
89 131 
89 134 
89 135 
89 137 
89 140 
89 142 
89 143 
89 146 
89 148 
89 149 
89 151 
89 153 
89 156 
89 157 
89 160 
89 161 
89 164 
89 166 
89 167 
89 169 
89 171 
89 173 
89 176 
89 177 
89 179 
89 181 
89 183 
89 185 
89 188 
89 190 
89 192 
90 98 
90 99 
90 102 
90 103 
90 105 
90 107 
90 109 
90 112 
90 114 
90 115 
90 118 
90 119 
90 122 
90 123 
90 125 
90 127 
90 130 
90 132 
90 133 
90 136 
90 138 
90 139 
90 141 
90 144 
90 145 
90 147 
90 150 
90 152 
90 154 
90 155 
90 158 
90 159 
90 162 
90 163 
90 165 
90 168 
90 170 
90 172 
90 174 
90 175 
90 178 
90 180 
90 182 
90 184 
90 186 
90 187 
90 189 
90 191 
91 92 
91 97 
91 100 
91 102 
91 103 
91 106 
91 108 
91 110 
91 112 
91 113 
91 115 
91 118 
91 119 
91 122 
91 123 
91 126 
91 128 
91 130 
91 131 
91 133 
91 136 
91 137 
91 139 
91 142 
91 144 
91 145 
91 148 
91 150 
91 151 
91 153 
91 155 
91 158 
91 159 
91 162 
91 163 
91 166 
91 168 
91 169 
91 171 
91 173 
91 175 
91 178 
91 179 
91 181 
91 183 
91 185 
91 187 
91 190 
91 192 
92 98 
92 99 
92 101 
92 104 
92 105 
92 107 
92 109 
92 111 
92 114 
92 116 
92 117 
92 120 
92 121 
92 124 
92 125 
92 127 
92 129 
92 132 
92 134 
92 135 
92 138 
92 140 
92 141 
92 143 
92 146 
92 147 
92 149 
92 152 
92 154 
92 156 
92 157 
92 160 
92 161 
92 164 
92 165 
92 167 
92 170 
92 172 
92 174 
92 176 
92 177 
92 180 
92 182 
92 184 
92 186 
92 188 
92 189 
92 191 
93 94 
93 97 
93 100 
93 102 
93 104 
93 105 
93 108 
93 110 
93 112 
93 114 
93 115 
93 117 
93 120 
93 121 
93 124 
93 125 
93 128 
93 130 
93 132 
93 133 
93 135 
93 138 
93 139 
93 141 
93 144 
93 146 
93 147 
93 150 
93 152 
93 153 
93 155 
93 157 
93 160 
93 161 
93 164 
93 165 
93 168 
93 170 
93 171 
93 173 
93 175 
93 177 
93 180 
93 181 
93 183 
93 185 
93 187 
93 189 
93 192 
94 98 
94 99 
94 101 
94 103 
94 106 
94 107 
94 109 
94 111 
94 113 
94 116 
94 118 
94 119 
94 122 
94 123 
94 126 
94 127 
94 129 
94 131 
94 134 
94 136 
94 137 
94 140 
94 142 
94 143 
94 145 
94 148 
94 149 
94 151 
94 154 
94 156 
94 158 
94 159 
94 162 
94 163 
94 166 
94 167 
94 169 
94 172 
94 174 
94 176 
94 178 
94 179 
94 182 
94 184 
94 186 
94 188 
94 190 
94 191 
95 96 
95 97 
95 100 
95 102 
95 104 
95 106 
95 107 
95 110 
95 112 
95 114 
95 116 
95 117 
95 119 
95 122 
95 123 
95 126 
95 127 
95 130 
95 132 
95 134 
95 135 
95 137 
95 140 
95 141 
95 143 
95 146 
95 148 
95 149 
95 152 
95 154 
95 155 
95 157 
95 159 
95 162 
95 163 
95 166 
95 167 
95 170 
95 172 
95 173 
95 175 
95 177 
95 179 
95 182 
95 183 
95 185 
95 187 
95 189 
95 191 
96 98 
96 99 
96 101 
96 103 
96 105 
96 108 
96 109 
96 111 
96 113 
96 115 
96 118 
96 120 
96 121 
96 124 
96 125 
96 128 
96 129 
96 131 
96 133 
96 136 
96 138 
96 139 
96 142 
96 144 
96 145 
96 147 
96 150 
96 151 
96 153 
96 156 
96 158 
96 160 
96 161 
96 164 
96 165 
96 168 
96 169 
96 171 
96 174 
96 176 
96 178 
96 180 
96 181 
96 184 
96 186 
96 188 
96 190 
96 192 
97 98 
99 100 
101 102 
103 104 
105 106 
107 108 
109 110 
111 112 
113 114 
115 116 
117 118 
119 120 
121 122 
123 124 
125 126 
127 128 
129 130 
131 132 
133 134 
135 136 
137 138 
139 140 
141 142 
143 144 
145 146 
147 148 
149 150 
151 152 
153 154 
155 156 
157 158 
159 160 
161 162 
163 164 
165 166 
167 168 
169 170 
171 172 
173 174 
175 176 
177 178 
179 180 
181 182 
183 184 
185 186 
187 188 
189 190 
191 192 
